CLT06
Position Depot: Center
Horizon for Depot: Large
Position of customers: Cluster
Distribution of the demand: Medium
Width of time windows: Tight
Distribution of the service: Small

VEHICLE 
NUMBER 	 CAPACITY 
 7 	 	 279 
 
CUSTOMER
CUST NO. 	 XCOORD.  	 YCOORD. 	 DEMAND 	 READY TIME 	 DUE DATE 	 SERVICE TIME 
 0 	 	 500 	 	 500 	 	 0 	 	 0 	 	 4390 	 	 0 
  1 	 	 164 	 	 952 	 	 5 	 	 2210 	 	 2300 	 	 62 
  2 	 	 26 	 	 413 	 	 9 	 	 417 	 	 530 	 	 61 
  3 	 	 814 	 	 900 	 	 9 	 	 421 	 	 559 	 	 97 
  4 	 	 480 	 	 926 	 	 8 	 	 2038 	 	 2096 	 	 83 
  5 	 	 62 	 	 410 	 	 73 	 	 3887 	 	 3965 	 	 79 
  6 	 	 426 	 	 890 	 	 6 	 	 1838 	 	 1967 	 	 81 
  7 	 	 999 	 	 831 	 	 1 	 	 2008 	 	 2188 	 	 77 
  8 	 	 139 	 	 965 	 	 1 	 	 3491 	 	 3612 	 	 83 
  9 	 	 54 	 	 441 	 	 4 	 	 395 	 	 504 	 	 66 
  10 	 	 745 	 	 697 	 	 7 	 	 2641 	 	 2739 	 	 92 
  11 	 	 440 	 	 904 	 	 3 	 	 2179 	 	 2231 	 	 52 
  12 	 	 766 	 	 982 	 	 2 	 	 1020 	 	 1098 	 	 74 
  13 	 	 203 	 	 919 	 	 4 	 	 1826 	 	 2021 	 	 84 
  14 	 	 415 	 	 818 	 	 6 	 	 1566 	 	 1746 	 	 73 
  15 	 	 558 	 	 885 	 	 8 	 	 3588 	 	 3720 	 	 65 
  16 	 	 229 	 	 985 	 	 6 	 	 1963 	 	 2140 	 	 83 
  17 	 	 22 	 	 382 	 	 10 	 	 4085 	 	 4166 	 	 97 
  18 	 	 812 	 	 894 	 	 9 	 	 3469 	 	 3601 	 	 55 
  19 	 	 2 	 	 419 	 	 4 	 	 4006 	 	 4077 	 	 55 
  20 	 	 469 	 	 905 	 	 66 	 	 2397 	 	 2548 	 	 69 
  21 	 	 30 	 	 419 	 	 1 	 	 416 	 	 524 	 	 75 
  22 	 	 220 	 	 960 	 	 5 	 	 414 	 	 592 	 	 57 
  23 	 	 794 	 	 881 	 	 6 	 	 1535 	 	 1731 	 	 81 
  24 	 	 15 	 	 416 	 	 50 	 	 3953 	 	 4030 	 	 54 
  25 	 	 821 	 	 911 	 	 71 	 	 3544 	 	 3686 	 	 64 
  26 	 	 527 	 	 930 	 	 1 	 	 1694 	 	 1841 	 	 61 
  27 	 	 57 	 	 290 	 	 1 	 	 1963 	 	 2048 	 	 50 
  28 	 	 32 	 	 392 	 	 86 	 	 438 	 	 528 	 	 89 
  29 	 	 55 	 	 298 	 	 74 	 	 637 	 	 830 	 	 66 
  30 	 	 52 	 	 366 	 	 10 	 	 2213 	 	 2373 	 	 86 
  31 	 	 804 	 	 989 	 	 51 	 	 3075 	 	 3195 	 	 50 
  32 	 	 281 	 	 911 	 	 5 	 	 402 	 	 512 	 	 63 
  33 	 	 303 	 	 955 	 	 9 	 	 440 	 	 545 	 	 78 
  34 	 	 180 	 	 951 	 	 55 	 	 3080 	 	 3132 	 	 99 
  35 	 	 172 	 	 959 	 	 2 	 	 4251 	 	 4322 	 	 62 
  36 	 	 377 	 	 831 	 	 9 	 	 3923 	 	 4016 	 	 98 
  37 	 	 146 	 	 798 	 	 65 	 	 860 	 	 1035 	 	 84 
  38 	 	 510 	 	 855 	 	 90 	 	 308 	 	 390 	 	 92 
  39 	 	 191 	 	 874 	 	 3 	 	 414 	 	 533 	 	 92 
  40 	 	 81 	 	 992 	 	 7 	 	 1367 	 	 1500 	 	 67 
  41 	 	 189 	 	 893 	 	 5 	 	 1959 	 	 2124 	 	 76 
  42 	 	 166 	 	 984 	 	 1 	 	 3128 	 	 3183 	 	 79 
  43 	 	 132 	 	 936 	 	 10 	 	 3880 	 	 4000 	 	 76 
  44 	 	 942 	 	 828 	 	 7 	 	 554 	 	 605 	 	 50 
  45 	 	 43 	 	 377 	 	 6 	 	 444 	 	 520 	 	 61 
  46 	 	 495 	 	 876 	 	 63 	 	 2355 	 	 2507 	 	 70 
  47 	 	 489 	 	 941 	 	 72 	 	 1004 	 	 1101 	 	 81 
  48 	 	 436 	 	 921 	 	 58 	 	 1397 	 	 1574 	 	 87 
  49 	 	 504 	 	 978 	 	 4 	 	 977 	 	 1109 	 	 50 
  50 	 	 119 	 	 912 	 	 1 	 	 590 	 	 735 	 	 91 
  51 	 	 361 	 	 908 	 	 4 	 	 3139 	 	 3321 	 	 100 
  52 	 	 168 	 	 848 	 	 3 	 	 2976 	 	 3046 	 	 80 
  53 	 	 549 	 	 781 	 	 62 	 	 3426 	 	 3484 	 	 53 
  54 	 	 124 	 	 934 	 	 8 	 	 3222 	 	 3385 	 	 97 
  55 	 	 786 	 	 923 	 	 10 	 	 2945 	 	 3031 	 	 84 
  56 	 	 243 	 	 961 	 	 7 	 	 435 	 	 580 	 	 97 
  57 	 	 834 	 	 902 	 	 2 	 	 1584 	 	 1707 	 	 50 
  58 	 	 3 	 	 413 	 	 4 	 	 790 	 	 899 	 	 83 
  59 	 	 39 	 	 434 	 	 5 	 	 1629 	 	 1827 	 	 87 
  60 	 	 758 	 	 907 	 	 8 	 	 2746 	 	 2811 	 	 98 
  61 	 	 798 	 	 851 	 	 84 	 	 1074 	 	 1189 	 	 54 
  62 	 	 884 	 	 913 	 	 90 	 	 3539 	 	 3706 	 	 72 
  63 	 	 215 	 	 773 	 	 74 	 	 1621 	 	 1718 	 	 78 
  64 	 	 478 	 	 919 	 	 9 	 	 372 	 	 461 	 	 96 
  65 	 	 172 	 	 942 	 	 53 	 	 505 	 	 605 	 	 58 
  66 	 	 47 	 	 453 	 	 97 	 	 1369 	 	 1557 	 	 80 
  67 	 	 192 	 	 975 	 	 3 	 	 1715 	 	 1825 	 	 78 
  68 	 	 873 	 	 870 	 	 9 	 	 1322 	 	 1491 	 	 77 
  69 	 	 149 	 	 900 	 	 9 	 	 3768 	 	 3919 	 	 77 
  70 	 	 776 	 	 900 	 	 9 	 	 3739 	 	 3846 	 	 100 
  71 	 	 468 	 	 960 	 	 64 	 	 4157 	 	 4352 	 	 91 
  72 	 	 24 	 	 481 	 	 4 	 	 1711 	 	 1809 	 	 100 
  73 	 	 819 	 	 901 	 	 5 	 	 3575 	 	 3734 	 	 56 
  74 	 	 192 	 	 820 	 	 6 	 	 384 	 	 554 	 	 75 
  75 	 	 485 	 	 959 	 	 9 	 	 1034 	 	 1094 	 	 90 
  76 	 	 495 	 	 978 	 	 10 	 	 1167 	 	 1322 	 	 60 
  77 	 	 123 	 	 428 	 	 3 	 	 855 	 	 1039 	 	 93 
  78 	 	 537 	 	 902 	 	 9 	 	 3135 	 	 3271 	 	 97 
  79 	 	 538 	 	 951 	 	 75 	 	 3405 	 	 3603 	 	 75 
  80 	 	 6 	 	 417 	 	 9 	 	 1285 	 	 1420 	 	 58 
  81 	 	 746 	 	 988 	 	 5 	 	 4232 	 	 4286 	 	 83 
  82 	 	 821 	 	 936 	 	 8 	 	 2542 	 	 2724 	 	 94 
  83 	 	 68 	 	 863 	 	 4 	 	 1686 	 	 1774 	 	 53 
  84 	 	 918 	 	 935 	 	 7 	 	 3337 	 	 3507 	 	 83 
  85 	 	 100 	 	 763 	 	 1 	 	 2168 	 	 2344 	 	 52 
  86 	 	 357 	 	 932 	 	 6 	 	 2891 	 	 3005 	 	 69 
  87 	 	 497 	 	 911 	 	 9 	 	 3293 	 	 3358 	 	 59 
  88 	 	 770 	 	 842 	 	 3 	 	 320 	 	 511 	 	 100 
  89 	 	 92 	 	 906 	 	 6 	 	 439 	 	 633 	 	 92 
  90 	 	 847 	 	 780 	 	 1 	 	 3650 	 	 3779 	 	 92 
  91 	 	 784 	 	 945 	 	 7 	 	 3034 	 	 3117 	 	 60 
  92 	 	 446 	 	 949 	 	 8 	 	 338 	 	 497 	 	 90 
  93 	 	 152 	 	 391 	 	 6 	 	 3200 	 	 3250 	 	 51 
  94 	 	 480 	 	 945 	 	 4 	 	 4150 	 	 4294 	 	 54 
  95 	 	 835 	 	 876 	 	 3 	 	 560 	 	 612 	 	 79 
  96 	 	 523 	 	 870 	 	 1 	 	 2511 	 	 2632 	 	 60 
  97 	 	 811 	 	 886 	 	 60 	 	 2773 	 	 2864 	 	 55 
  98 	 	 821 	 	 737 	 	 9 	 	 3321 	 	 3381 	 	 96 
  99 	 	 733 	 	 858 	 	 90 	 	 1906 	 	 2086 	 	 73 
  100 	 	 16 	 	 451 	 	 88 	 	 3542 	 	 3682 	 	 72 
 